##TITLE= SPLICCO spectrum (File: c:\Users\pc-users\Desktop\yael gilad asaf\mercury.jdx)
##JCAMP-DX= 4.24
##DATE= 10.5.2026
##TIME= 15:11:15
##DATA TYPE= INFRARED SPECTRUM
##OWNER= Public Domain
##RESOLUTION= 2.0
##DELTAX= 1.00000000
##XUNITS= NANOMETERS
##YUNITS= ARBITRARY UNITS
##APPLICATION= SPLICCO
$$SHOW_VERTICAL_FLIPPED= 0
$$SHOW_HORIZONTAL_FLIPPED= 0
##XFACTOR= 1.0
##YFACTOR= 0.000001
##FIRSTX= 321.791
##LASTX= 741.106
##NPOINTS= 3648
##FIRSTY= 0.000029
##XYDATA= (X++(Y..Y))
321.791  28 -24 10 -7 9 15 0 20
322.711  -23 7 -34 11 -35 1 -18 -2
323.631  -2 -21 2 -33 12 -34 2 -20
324.551  21 4 -6 4 -22 16 -52 15
325.470  -16 8 -8 -1 1 -7 9 -21
326.390  5 -31 27 -5 4 -8 -3 13
327.310  -10 0 -39 -3 -28 19 -12 0
328.230  -9 -10 0 -24 17 -34 27 -29
329.150  23 -22 -3 0 0 -75 -54 -16
330.070  -48 19 -42 -3 -4 3 -15 -23
330.989  -15 -15 32 -21 26 -6 13 -23
331.909  -16 -7 -13 -1 -11 13 -17 9
332.829  -36 -2 -20 -14 -9 -4 -92 -37
333.749  27 -35 6 -26 15 -3 -10 -22
334.669  -17 -1 -13 7 -50 6 -76 -34
335.589  -48 -26 -32 -29 -11 -8 -4 -11
336.508  2 -45 15 -20 3 -16 -4 -13
337.428  -19 -5 -36 22 -18 9 -64 7
338.348  -14 -6 -7 -16 0 -22 14 -35
339.268  -3 -24 7 -15 -13 -5 -3 -1
340.188  -8 1 -32 14 -48 20 -43 -3
341.108  -17 -7 -10 -18 -11 -33 21 -43
342.027  28 -35 0 -22 -5 -10 0 -3
342.947  -10 -13 -37 6 -68 -3 -14 0
343.867  -29 -17 -24 -3 1 -10 -3 -24
344.787  24 -59 17 -42 -11 -24 -15 -32
345.707  -30 -21 -34 0 -32 5 -38 -1
346.627  -30 -4 -32 -10 -19 -21 -17 -25
347.547  0 -51 9 -43 2 -34 1 -22
348.466  -14 -14 -10 -9 -30 4 -44 -6
349.386  -49 -20 -33 -14 -39 -50 -78 -35
350.306  -27 -38 -6 -31 26 -37 4 -56
351.226  -2 -44 -11 -27 -14 -26 -34 -12
352.146  -30 -3 -26 23 -109 5 -33 -10
353.066  -30 -11 -31 -36 -12 -33 -21 -53
353.985  -21 -60 -5 -34 -14 -24 -9 -27
354.905  -18 -15 -14 -5 -29 4 -25 7
355.825  -38 -17 -39 -11 -27 -10 -25 -23
356.745  -24 -32 -9 -40 -3 -47 6 -45
357.665  -9 -33 -4 -22 -18 -13 -31 -26
358.585  -39 -15 -50 -8 -32 -9 -39 1
359.504  -45 -30 -46 -25 -31 -34 -32 -32
360.424  -11 -50 -13 -63 -23 -38 -27 -38
361.344  -12 -40 -38 -42 -46 -40 -62 -42
362.264  -49 -23 -77 -18 -78 -39 -73 -53
363.184  -84 -70 -71 -57 -55 -79 -69 -98
364.104  -56 -90 -57 -112 -74 -111 -82 -121
365.023  -115 -134 -143 -189 42399 233836 347221 215222
365.943  133699 131308 125284 79503 34122 289 -533 -394
366.863  -517 -631 -517 -334 -263 -232 -186 -164
367.783  -99 -85 -39 -64 -35 -77 -40 -67
368.703  -39 -46 -42 -49 -49 -35 -56 -26
369.623  -32 -27 -68 -18 -99 1 -45 -7
370.543  -58 -35 -43 -24 -15 -12 -31 -51
371.462  -30 -39 -45 -27 -14 -62 7 -55
372.382  6 -34 1 -36 -37 -34 -24 -14
373.302  -26 -17 -20 -14 -41 -14 -45 -14
374.222  -49 0 -42 -25 -29 -20 -26 -27
375.142  -39 -29 -20 -32 -41 -37 -14 -38
376.062  1 -46 7 -52 -2 -41 -9 -41
376.981  -15 -31 -25 -25 -22 -17 -36 -13
377.901  -46 -24 -52 -18 -52 -8 -63 -17
378.821  -52 -16 -36 -24 -52 -20 -28 -16
379.741  -21 -40 -28 -65 -38 -57 -24 -47
380.661  -19 -90 -22 -66 -37 -43 -21 -54
381.581  -35 -45 -35 -44 -55 -38 -57 -38
382.500  -63 -59 -59 -17 -53 -34 -68 -41
383.420  -53 -30 -60 -30 -54 -36 -31 -49
384.340  -57 -57 -41 -40 -30 -60 -44 -62
385.260  -36 -74 -24 -82 -24 -67 -31 -48
386.180  -28 -49 -34 -46 -54 -56 -58 -49
387.100  -48 -40 -62 -41 -83 -39 -78 -24
388.019  -64 -32 -65 -34 -54 -47 -70 -52
388.939  -65 -52 -50 -48 -43 -62 -58 -74
389.859  -55 -73 -32 -74 -22 -84 -29 -88
390.779  -39 -80 -64 -126 -58 -67 -58 -64
391.699  -54 -48 -44 -54 -63 -50 -71 -31
392.619  -54 -30 -55 -41 -64 -28 -69 -45
393.539  -55 -32 -66 -40 -66 -51 -53 -45
394.458  -41 -41 -45 -47 -34 -56 -43 -67
395.378  -32 -70 -54 -78 -46 -75 -24 -59
396.298  -42 -61 -45 -60 -33 -52 -46 -48
397.218  -46 -75 -60 -45 -56 -40 -45 -23
398.138  -65 -42 -67 -27 -78 -28 -74 -18
399.058  -53 -26 -63 -49 -64 -25 -61 -59
399.977  -65 -40 -47 -54 -42 -51 -63 -72
400.897  -66 -72 -55 -76 -49 -82 -55 -82
401.817  -47 -95 -39 -119 -44 -102 -67 -100
402.737  -83 -120 -101 -92 -76 -96 -91 -109
403.657  -92 -96 -126 -106 -113 -101 -135 -115
404.577  -156 -347 128413 305875 271079 125908 57702 37923
405.496  34526 17962 14129 -628 -431 -259 -202 -153
406.416  -158 -140 -156 -142 -123 -112 -114 -115
407.336  -96 -117 -99 -105 -110 -355 -587 -588
408.256  -346 -269 -192 -216 -171 -174 -125 -149
409.176  -93 -103 -87 -103 -75 -94 -74 -95
410.096  -80 -80 -70 -67 -62 -64 -85 -78
411.015  -95 -79 -90 -70 -101 -65 -96 -55
411.935  -116 -67 -79 -51 -85 -76 -90 -49
412.855  -107 -64 -82 -47 -98 -73 -82 -59
413.775  -84 -80 -82 -71 -67 -64 -59 -62
414.695  -68 -80 -54 -76 -63 -78 -53 -71
415.615  -52 -79 -55 -146 -155 -189 -96 -133
416.535  -66 -111 -77 -92 -58 -104 -37 -69
417.454  -53 -67 -42 -64 -50 -55 -53 -76
418.374  -83 -85 -70 -67 -76 -62 -56 -67
419.294  -103 -98 -86 -71 -77 -52 -117 -107
420.214  -197 -166 -165 -101 -132 -87 -96 -77
421.134  -109 -68 -95 -47 -92 -72 -71 -46
422.054  -71 -43 -63 -41 -61 -48 -60 -69
422.973  -71 -66 -68 -53 -42 -66 -67 -70
423.893  -62 -77 -48 -77 -58 -68 -30 -73
424.813  -47 -70 -43 -67 -41 -83 -41 -101
425.733  -55 -90 -39 -136 -105 -122 -84 -93
426.653  -61 -109 -100 -102 -78 -86 -82 -117
427.573  -99 -82 -66 -78 -72 -69 -83 -86
428.492  -77 -73 -73 -64 -69 -58 -79 -68
429.412  -91 -73 -95 -111 -80 -125 -126 -163
430.332  -85 -117 -80 -105 -73 -116 -77 -118
431.252  -66 -121 -74 -126 -100 -124 -96 -117
432.172  -95 -130 -100 -122 -98 -130 -95 -130
433.092  -119 -151 -153 -195 -186 -189 -200 -248
434.011  -277 -271 -246 -233 -243 -271 -384 -483
434.931  -483 -393 -350 -305 -323 -329 3347 347225
435.851  814429 927465 728140 471699 283877 208812 170356 147804
436.771  134707 111220 70590 29909 765 -521 -460 -365
437.691  -369 -297 -309 -246 -275 -210 -236 -177
438.611  -183 -167 -173 -141 -140 -108 -118 -99
439.531  -123 -90 -102 -89 -97 -69 -87 -88
440.450  -99 -83 -84 -87 -100 -95 -93 -80
441.370  -75 -71 -66 -84 -82 -82 -68 -69
442.290  -67 -81 -73 -84 -68 -76 -46 -96
443.210  -70 -96 -57 -75 -41 -74 -52 -91
444.130  -45 -82 -46 -85 -36 -94 -35 -77
445.050  -27 -68 -30 -69 -34 -81 -39 -70
445.969  -35 -84 -36 -73 -36 -65 -67 -82
446.889  -52 -64 -36 -82 -85 -72 -40 -60
447.809  -46 -64 -52 -61 -33 -61 -40 -62
448.729  -29 -46 -44 -54 -42 -78 -60 -60
449.649  -49 -67 -43 -57 -64 -66 -62 -65
450.569  -46 -50 -41 -44 -58 -56 -62 -49
451.488  -53 -54 -52 -38 -43 -47 -74 -71
452.408  -71 -61 -60 -48 -67 -60 -64 -45
453.328  -71 -49 -60 -51 -60 -34 -51 -40
454.248  -74 -41 -66 -42 -72 -43 -77 -30
455.168  -66 -36 -78 -28 -72 -35 -65 -42
456.088  -77 -43 -63 -31 -67 -31 -73 -46
457.007  -74 -35 -74 -35 -80 -45 -81 -34
457.927  -70 -39 -64 -20 -80 -50 -69 -34
458.847  -47 -88 -42 -73 -47 -73 -47 -71
459.767  -38 -69 -26 -79 -35 -74 -42 -84
460.687  -49 -66 -28 -67 -34 -76 -39 -84
461.607  -74 -60 -49 -73 -35 -62 -32 -80
462.527  -38 -75 -57 -89 -35 -77 -55 -66
463.446  -56 -51 -42 -65 -50 -65 -50 -60
464.366  -39 -59 -45 -73 -49 -66 -46 -58
465.286  -42 -53 -50 -56 -45 -63 -50 -53
466.206  -40 -61 -56 -60 -47 -60 -52 -45
467.126  -41 -66 -46 -49 -50 -62 -39 -49
468.046  -46 -60 -43 -55 -53 -57 -45 -53
468.965  -43 -52 -51 -54 -47 -52 -42 -56
469.885  -43 -57 -57 -58 -54 -68 -55 -57
470.805  -50 -49 -40 -43 -47 -47 -44 -57
471.725  -45 -43 -35 -33 -39 -59 -46 -35
472.645  -37 -50 -56 -54 -40 -43 -45 -43
473.565  -32 -40 -50 -44 -32 -40 -35 -43
474.484  -33 -34 -35 -35 -30 -34 -48 -49
475.404  -45 -44 -29 -38 -37 -38 -35 -50
476.324  -58 -40 -25 -39 -39 -45 -31 -43
477.244  -42 -44 -37 -41 -41 -45 -43 -62
478.164  -50 -42 -31 -41 -39 -39 -42 -52
479.084  -31 -32 -22 -60 -62 -22 -11 -35
480.003  -43 -44 -25 -38 -37 -37 -28 -34
480.923  -30 -41 -41 -38 -18 -36 -31 -31
481.843  -27 -41 -30 -50 -33 -48 -20 -22
482.763  -8 -40 -18 -37 -28 -41 -21 -43
483.683  -24 -40 -13 -35 -21 -50 -26 -43
484.603  -13 -30 -16 -32 -25 -42 -13 -58
485.523  -18 -38 -16 -46 -16 -53 -33 -42
486.442  -21 -29 -21 -48 -28 -42 -21 -51
487.362  -18 -39 -21 -59 -32 -48 -21 -70
488.282  -61 -8 -40 -18 -49 -13 -56 -22
489.202  -56 -17 -55 -2 -57 -25 -52 -16
490.122  -68 -20 -79 -29 -69 -18 -59 -7
491.042  -49 -29 -59 -29 -105 -77 -121 -53
491.961  -104 -48 -78 -28 -66 -47 -49 -31
492.881  -56 -37 -52 -27 -59 -20 -53 -29
493.801  -54 -30 -62 -6 -51 -32 -56 -32
494.721  -48 -22 -41 -22 -48 -25 -28 -22
495.641  -37 -22 -38 -31 -52 -30 -41 -27
496.561  -47 -38 -46 -37 -39 -21 -40 -34
497.480  -34 -28 -42 -33 -51 -49 -40 -30
498.400  -26 -28 -33 -34 -27 -37 -35 -40
499.320  -52 -42 -18 -37 -40 -54 -23 -29
500.240  -30 -45 -31 -44 -30 -31 -22 -49
501.160  -25 -38 -8 -32 -25 -47 -20 -53
502.080  -35 -50 -22 -50 -14 -39 -21 -58
502.999  -20 -59 -16 -36 -18 -71 -14 -32
503.919  -10 -58 -3 -33 -8 -49 -8 -53
504.839  -4 -37 -4 -51 -16 -60 -18 -41
505.759  -17 -49 -14 -52 -21 -56 -40 -50
506.679  -17 -44 -19 -35 -1 -32 0 -33
507.599  -18 -31 -16 -30 -17 -29 -18 -31
508.519  -21 -36 -21 -27 -20 -23 -22 -32
509.438  -33 -28 -30 -19 -13 -16 -35 -20
510.358  -27 -27 -41 -18 -26 -2 -13 -10
511.278  -35 -14 -35 -21 -34 -16 -42 3
512.198  -38 -2 -41 -10 -41 1 -34 -1
513.118  -35 0 -36 0 -37 -3 -49 7
514.038  -28 -8 -48 -15 -37 -5 -31 -15
514.957  -45 -27 -37 -4 -49 -30 -27 12
515.877  -36 -19 -42 -13 -42 -42 -48 -16
516.797  -31 -19 -32 -17 -31 -12 -11 -11
517.717  -28 -27 2 -23 -32 -32 -24 -20
518.637  -39 -21 -29 -26 -53 -18 -16 -10
519.557  -31 -1 -26 -5 -37 -20 -32 2
520.476  -37 -10 -40 5 -41 -15 -31 -1
521.396  -56 6 -28 -8 -44 6 -42 -34
522.316  -48 -2 -39 1 -37 4 -39 -41
523.236  -35 2 -39 -11 -28 -1 -27 9
524.156  -14 -8 -25 -8 -12 -7 -15 -2
525.076  1 -18 -21 -13 -19 -15 -9 -24
525.995  -21 -29 -10 -19 -7 -24 -7 -31
526.915  -8 -30 -8 -23 -9 -32 -7 -28
527.835  -2 -34 -1 -41 0 -47 6 -44
528.755  7 -43 0 -26 4 -34 -6 -38
529.675  -9 -28 8 -27 -10 -34 -5 -33
530.595  -5 -15 -4 -32 -22 -31 -15 -16
531.515  -7 -6 0 -10 -19 -19 -26 -13
532.434  -16 -12 -25 -16 -40 -15 -28 0
533.354  -14 1 -25 -7 -35 -2 -26 -14
534.274  -19 9 -25 9 -41 32 -44 17
535.194  -26 5 -35 -15 -50 -9 -42 -10
536.114  -23 0 -20 22 -25 2 -30 -12
537.034  -29 -13 -11 -8 -18 -8 -17 -23
537.953  -25 -15 -14 -26 -3 -15 -4 -17
538.873  -18 -50 -3 -39 -9 -31 0 -35
539.793  -3 -29 -7 -35 -6 -47 -15 -53
540.713  2 -23 6 -41 0 -49 -22 -18
541.633  -5 -41 -20 -37 -16 -27 0 -45
542.553  -31 -61 -33 -41 -31 -32 -32 -43
543.472  -30 -28 -28 -29 -51 -37 -51 -47
544.392  -58 -29 -53 -42 -78 -46 -69 -68
545.312  -78 -74 -119 -97 -141 -116 -178 5175
546.232  269003 564157 484568 315312 284059 262549 196150 127267
547.152  91245 72492 55208 41274 35536 35496 34628 23393
548.072  24472 20807 11089 2712 -555 -420 -336 -262
548.991  -221 -218 -208 -170 -194 -199 -168 -143
549.911  -151 -119 -110 -84 -112 -59 -95 -66
550.831  -101 -52 -77 -30 -69 -13 -64 -5
551.751  -66 0 -43 -18 -57 -14 -52 -16
552.671  -42 -28 -33 -10 -28 -7 -28 -21
553.591  -15 -8 -22 -31 -28 -32 -36 -32
554.511  -6 -13 -7 -33 -12 -38 -11 -20
555.430  -13 -31 1 -30 -4 -16 4 -48
556.350  2 -48 20 -20 9 -33 -7 -24
557.270  13 -34 -1 -33 -15 -20 -11 -29
558.190  -8 -18 -3 -16 -22 -18 -16 -4
559.110  -2 -2 -10 6 -14 0 -34 4
560.030  -16 22 -30 2 -18 9 -16 0
560.949  -37 -2 -23 22 -35 13 -14 0
561.869  -23 14 -9 9 -20 3 -14 9
562.789  -4 8 -5 -4 -6 -1 -10 -29
563.709  -18 1 1 -27 -15 -10 11 -20
564.629  -5 -20 0 -23 19 -28 8 -34
565.549  26 -17 23 -52 14 -24 22 -34
566.468  0 -34 13 -7 12 -10 -2 -26
567.388  -11 -11 -2 -13 -50 -39 7 -9
568.308  -28 -13 -28 -8 -8 0 -17 1
569.228  -30 -21 -25 7 -46 12 -41 7
570.148  -7 12 -22 0 -59 27 -14 15
571.068  -14 13 -11 -8 -35 0 -13 -1
571.987  -9 0 -10 -6 -2 -11 -10 -14
572.907  -2 -8 9 -17 0 -13 -5 -23
573.827  8 -31 13 -18 30 -17 12 -23
574.747  11 -16 10 -32 0 -18 13 -20
575.667  0 -16 -7 -21 -14 -9 2 -4
576.587  -4 -13 -19 -18 -26 -104 -371 -585
577.507  -527 -346 -325 -293 -288 -159 -112 -132
578.426  -84 -116 -92 -96 -50 -135 -75 -321
579.346  -587 -657 -450 -405 -367 -339 -229 -190
580.266  -147 -146 -125 -123 -113 -116 -108 -95
581.186  -95 -78 -83 -74 -89 -71 -80 -40
582.106  -49 -14 -43 -38 -30 0 -37 -3
583.026  -33 6 -40 7 -28 1 -39 8
583.945  -20 8 -5 -14 -36 -1 -8 -13
584.865  -14 -2 3 -6 -9 -9 9 -14
585.785  -2 -5 2 -18 9 -20 17 -20
586.705  4 -31 22 -7 22 -10 6 -24
587.625  15 -24 0 -20 -5 -23 -1 -7
588.545  -1 -17 -7 -20 -20 -4 -6 -16
589.464  -27 -11 -25 6 0 10 -16 18
590.384  -18 4 -15 9 -26 17 -12 12
591.304  -11 20 -40 -1 -22 4 -26 6
592.224  1 9 -8 2 -15 -24 -13 2
593.144  -1 -5 7 4 10 -1 6 -17
594.064  16 -13 13 -26 14 -10 16 -12
594.983  13 -2 17 -34 -7 -20 2 -17
595.903  8 -16 15 -1 12 -19 -16 -9
596.823  -9 -10 3 18 5 0 -14 -5
597.743  -24 11 -17 -2 -12 28 -32 18
598.663  -36 12 -23 6 -26 0 -43 12
599.583  -23 -9 -14 12 1 13 -16 5
600.503  -2 -3 4 9 2 -6 0 -9
601.422  7 -25 8 -10 1 -27 17 -13
602.342  13 -31 6 -28 11 -26 9 -14
603.262  17 -2 12 -21 -11 -9 25 0
604.182  -1 -8 5 -33 -40 1 -1 -1
605.102  -2 12 -12 4 -26 16 -20 12
606.022  -10 36 -41 11 -23 17 -31 8
606.941  -42 21 -17 0 -8 21 -2 6
607.861  -14 0 -3 2 -3 -18 8 8
608.781  -1 6 -4 12 -21 13 -25 6
609.701  0 13 -22 -8 -17 23 -31 19
610.621  -23 12 -3 30 -5 12 -10 1
611.541  -14 -2 -5 5 1 10 10 -14
612.460  -13 -15 -6 -14 8 -27 14 -12
613.380  11 5 18 -25 16 -34 11 -26
614.300  33 -2 27 4 13 -13 6 0
615.220  16 -20 -6 -14 0 0 -9 -1
616.140  -14 -8 -20 10 -7 7 -14 9
617.060  -20 16 -29 14 -37 28 -6 31
617.979  -13 13 -21 -7 -14 5 -9 14
618.899  -16 -6 -2 -4 -22 -12 -3 -5
619.819  2 -9 0 -28 -3 -18 16 -19
620.739  17 -15 4 -24 32 -28 11 -16
621.659  19 -17 29 -3 19 -18 3 -13
622.579  1 8 8 -10 1 8 1 -4
623.499  -17 -5 -11 2 -27 10 -8 1
624.418  -21 11 -41 -8 -12 23 -6 16
625.338  -23 20 -27 -1 -8 6 -23 6
626.258  -4 11 -2 -3 0 1 2 -6
627.178  -1 -17 1 -11 12 2 8 -25
628.098  13 -13 26 -7 7 -12 21 -19
629.018  -5 -15 11 -26 3 -15 17 -8
629.937  -4 -8 0 -9 -10 -3 -19 -21
630.857  -14 2 -12 6 -21 22 -18 4
631.777  -9 20 -16 28 -22 11 -20 22
632.697  -2 13 -10 5 -17 7 -7 16
633.617  -1 -5 -3 2 1 1 10 -15
634.537  -11 -17 0 -7 13 -15 11 -21
635.456  24 -21 22 -12 37 -33 -6 -20
636.376  24 -33 14 7 15 -4 -8 -34
637.296  -21 -14 -4 -4 -3 9 -4 0
638.216  -15 13 0 25 -11 38 25 -29
639.136  16 -17 7 -12 11 -10 14 -21
640.056  17 -19 0 -16 13 -3 -4 -13
640.975  8 4 -8 -8 -12 -5 -22 -1
641.895  -30 -4 -14 8 -23 20 -34 5
642.815  -27 18 -22 25 -37 14 -20 26
643.735  -5 32 -2 1 -17 -1 -21 -20
644.655  -8 -5 -6 -10 -2 -7 1 -14
645.575  -1 -15 18 -18 2 -29 10 -16
646.495  28 -22 15 0 29 -18 17 -20
647.414  1 -35 5 -3 0 -17 -13 -14
648.334  -3 7 6 14 0 15 -18 8
649.254  -9 10 -16 11 -28 20 -15 44
650.174  -32 5 -11 23 -2 13 -18 10
651.094  -21 -10 -24 0 2 16 9 2
652.014  -2 -11 8 3 7 -12 3 -18
652.933  -6 -16 12 -18 19 -26 17 -22
653.853  26 -38 24 -10 3 -8 14 -6
654.773  6 -12 -2 -24 -17 -17 -10 1
655.693  4 4 -14 16 4 17 -15 22
656.613  4 30 -17 28 -35 43 -43 30
657.533  -23 13 -17 23 -15 2 -21 5
658.452  -7 2 -6 0 -1 2 -5 -9
659.372  5 -5 16 -10 0 -10 16 -21
660.292  7 -19 10 -16 12 -12 1 -26
661.212  22 -16 28 -10 4 -6 16 -13
662.132  2 -14 2 -8 -12 -6 -13 -2
663.052  -9 2 -10 0 -9 10 -13 -1
663.971  -40 17 -40 11 -39 26 -10 5
664.891  -33 -12 -24 7 -1 -4 -13 2
665.811  -19 -2 -11 -3 3 -11 -8 -4
666.731  8 -9 -3 -11 20 -16 6 -18
667.651  10 -4 31 -22 33 -35 0 -29
668.571  -11 -38 -11 -34 -6 -32 -35 4
669.491  -14 -15 -11 -2 3 -1 0 1
670.410  10 -15 13 -2 16 -19 12 -13
671.330  14 -15 26 -34 11 -36 -1 -24
672.250  6 -25 6 -5 28 -2 3 -11
673.170  -7 -24 -5 2 -1 -3 -21 3
674.090  -11 -15 -15 18 -19 11 5 17
675.010  -19 14 -43 18 -32 -14 -32 -2
675.929  -28 8 -18 -9 -21 -3 -9 17
676.849  -3 3 -1 -5 -3 -18 -7 -6
677.769  5 -14 3 -22 1 -29 6 -22
678.689  17 -42 -3 -28 16 -30 8 -23
679.609  10 -24 6 -12 2 -12 7 -9
680.529  5 -3 1 2 -4 -4 -10 4
681.448  -12 6 -3 17 -22 6 -33 22
682.368  -22 -8 -22 -2 -43 29 -13 9
683.288  -31 0 -29 4 -8 10 -14 2
684.208  4 7 -12 -9 -4 1 13 -3
685.128  10 -6 10 -21 -1 -33 16 -34
686.048  21 -30 10 -38 22 -41 28 -27
686.967  15 -33 -2 -32 -1 -24 -3 -21
687.887  -13 -12 -5 -8 -5 -11 -18 -4
688.807  -7 3 -10 3 -22 4 -13 19
689.727  -25 -8 -49 20 -44 -3 -37 9
690.647  -24 16 -28 2 -31 2 -22 -14
691.567  -12 7 -7 -8 -20 -5 0 -13
692.487  -7 -18 5 -13 0 -32 -2 -11
693.406  12 -13 6 -39 15 -27 33 -31
694.326  9 -29 7 -39 -7 -22 10 -14
695.246  11 -9 4 -8 1 -16 -14 -17
696.166  -24 -6 -17 -7 -32 -110 -399 -680
697.086  -650 -422 -373 -245 -212 -167 -193 -108
698.006  -148 -94 -149 -94 -109 -91 -124 -89
698.925  -103 -67 -93 -71 -79 -78 -59 -86
699.845  -83 -77 -81 -77 -82 -67 -88 -65
700.765  -80 -39 -74 -33 -46 -6 -58 3
701.685  -57 7 -43 -4 -36 -1 -38 8
702.605  -19 0 -43 -11 -28 -13 -30 -24
703.525  -23 -2 -11 -18 -4 -4 -3 -17
704.444  -6 -10 6 -15 0 -21 -17 -32
705.364  4 -15 16 -17 23 -37 0 -26
706.284  13 -31 8 -23 -30 -236 -431 -426
707.204  -256 -174 -151 -127 -92 -89 -87 -84
708.124  -80 -65 -71 -48 -79 -71 -72 -51
709.044  -94 -50 -71 -48 -70 -22 -84 -34
709.963  -70 -40 -78 -34 -56 -20 -60 -42
710.883  -61 -36 -53 -30 -33 -15 -34 -33
711.803  -18 -2 -9 -25 -32 -40 -17 -23
712.723  0 -17 20 -28 -9 -13 0 -44
713.643  -4 -26 11 -39 6 -32 14 -42
714.563  4 -26 -25 -106 -65 -44 -18 -39
715.483  -17 -33 -8 -23 -29 -18 -16 -16
716.402  -19 -15 -28 -10 -27 -4 -25 -10
717.322  -26 -5 -35 -16 -36 -15 -37 -3
718.242  -28 1 -27 9 -24 -1 -23 0
719.162  -24 5 -8 0 -20 6 -6 5
720.082  -3 0 -5 -6 0 -3 5 -8
721.002  -4 -31 2 -24 -6 -23 4 -19
721.921  21 -17 29 -9 41 -49 22 -46
722.841  8 -34 6 -13 16 -26 17 -8
723.761  21 -8 0 -17 -11 -9 5 1
724.681  -4 -17 -10 1 -19 -13 -20 -4
725.601  -24 -2 -22 -9 -27 -5 -14 1
726.521  -38 10 -22 -8 -39 -3 -47 -93
727.440  -191 -115 -84 -47 -68 -23 -42 -17
728.360  -46 -37 -53 -25 -31 -28 -30 -28
729.280  -36 -38 -30 -32 -28 -145 -272 -280
730.200  -169 -109 -111 -67 -100 -58 -122 -88
731.120  -97 -53 -101 -71 -107 -36 -83 -48
732.040  -91 -51 -75 -47 -64 -46 -47 -34
732.959  -57 -42 -49 -34 -43 -36 -46 -43
733.879  -39 -40 -41 -39 -18 -32 -15 -27
734.799  -16 -52 -57 -37 -5 -34 -19 -47
735.719  -1 -30 10 -37 2 -28 -8 -42
736.639  17 -13 13 -34 -23 -51 -19 -43
737.559  -9 -40 -28 -47 -49 -166 -384 -554
738.479  -482 -324 -239 -204 -198 -187 -180 -166
739.398  -164 -131 -132 -105 -129 -109 -121 -86
740.318  -118 -31 20 36 5 47 9 60
##END=
