##TITLE= SPLICCO spectrum (File: c:\Users\pc-users\Desktop\yael gilad asaf\sodium.jdx)
##JCAMP-DX= 4.24
##DATE= 10.5.2026
##TIME= 15:5:55
##DATA TYPE= INFRARED SPECTRUM
##OWNER= Public Domain
##RESOLUTION= 2.0
##DELTAX= 1.00000000
##XUNITS= NANOMETERS
##YUNITS= ARBITRARY UNITS
##APPLICATION= SPLICCO
$$SHOW_VERTICAL_FLIPPED= 0
$$SHOW_HORIZONTAL_FLIPPED= 0
##XFACTOR= 1.0
##YFACTOR= 0.000001
##FIRSTX= 321.791
##LASTX= 741.106
##NPOINTS= 3648
##FIRSTY= 0.000042
##XYDATA= (X++(Y..Y))
321.791  42 -68 21 28 -1 -28 3 31
322.711  -117 -77 -26 31 -77 17 15 -23
323.631  -75 -1 33 -127 -6 21 6 -54
324.551  37 45 -11 -30 6 51 -141 -22
325.470  33 46 -38 -33 50 -28 -17 14
326.390  25 -100 9 -18 -7 -83 -40 34
327.310  -88 -63 -18 41 -57 1 19 7
328.230  -37 -6 39 -55 -28 -25 68 -93
329.150  19 -10 -26 -50 5 -16 -66 -92
330.070  6 35 -81 -24 20 1 -89 -56
330.989  30 -82 -10 35 52 -88 2 19
331.909  -18 -79 -3 32 -24 -23 19 49
332.829  -60 32 8 16 -15 7 11330 3697
333.749  12 -39 70 -98 -45 24 -19 -101
334.669  -19 41 -73 -6 6 76 -59 -51
335.589  43 -4 -99 -45 34 -25 -49 27
336.508  52 -119 -17 0 21 -88 -21 1
337.428  -58 -63 -4 43 -62 -6 -238 29
338.348  -50 -24 21 -10 -49 -48 50 -108
339.268  -26 -8 37 -70 -82 14 -20 -49
340.188  13 51 -49 -9 0 25 -145 -35
341.108  -1 -32 -80 -55 2 -39 -23 -30
342.027  68 -59 -23 -17 -4 -35 6 9
342.947  -60 -78 -33 57 -115 -70 -5 45
343.867  -14 1 14 -4 22 14 31 -55
344.787  -10 -20 24 -100 -43 1 -17 -72
345.707  -39 23 -43 15 -30 32 -114 -53
346.627  -1 1 -89 -19 15 -44 -59 8
347.547  55 -92 -6 -19 32 -80 5 8
348.466  13 -21 3 7 -83 6 1 87
349.386  -99 -48 4 2 -78 -53 -44 -63
350.306  -97 -46 28 -35 23 -34 38 -140
351.226  -54 -8 14 -79 -26 -2 -68 -61
352.146  -24 14 -51 -5 -76 19 -62 -57
353.066  19 6 -89 -68 30 -77 -82 -32
353.985  7 -99 -35 -13 0 -90 -29 -3
354.905  -25 -44 -8 26 -22 -11 13 51
355.825  -46 -32 -25 -6 -44 11 15 -41
356.745  -89 -38 16 -41 -16 -5 54 -103
357.665  -81 -21 -3 -76 -41 15 -57 -94
358.585  -48 18 -59 -41 -16 13 -52 -3
359.504  -8 -10 -85 -30 -7 -56 -70 -19
360.424  46 -80 -40 -56 39 -81 -91 2
361.344  32 -70 -70 8 -13 -12 -9 24
362.264  -46 -13 -15 52 -76 -37 -28 -7
363.184  -91 -17 -2 -39 -25 -18 -10 -74
364.104  -35 -21 28 -78 -10 -9 12 -69
365.023  -61 -4 -6 -23 -27 -18 -87 -64
365.943  13 17 -28 -5 -8 6 -88 -8
366.863  80 -3 -135 -38 77 -2 -43 19
367.783  57 -114 -85 12 93 -119 -35 83
368.703  83 -65 -10 68 -7 -81 9 77
369.623  -36 -50 47 106 -240 -3 47 69
370.543  -134 -62 72 55 -30 17 99 -15
371.462  -49 35 74 -4 -21 43 119 -109
372.382  -5 76 76 -88 -102 73 -25 -110
373.302  9 82 3 10 56 111 -21 -16
374.222  84 121 -90 -39 81 68 -50 5
375.142  58 0 -61 12 54 -54 -2 39
376.062  116 -65 40 48 59 -100 1 77
376.981  54 -42 23 93 -18 -73 13 90
377.901  7 -31 21 78 -84 -73 63 56
378.821  -127 -7 42 15 -101 21 97 21
379.741  -39 46 92 -91 -95 33 98 -68
380.661  -12 -3 68 -127 -41 76 64 -91
381.581  -22 74 32 -50 -32 46 -75 -76
382.500  13 31 -91 -23 39 76 -106 -34
383.420  79 84 -83 13 43 37 -38 10
384.340  76 -58 -70 18 106 -53 -126 -2
385.260  74 -69 -71 16 71 -136 -31 67
386.180  56 -86 -9 71 -5 -91 -11 59
387.100  -53 4 52 99 -82 -91 19 73
388.019  -80 -101 63 67 -68 13 52 -16
388.939  -137 3 52 -12 -39 25 71 -83
389.859  -93 31 62 -108 24 52 64 -135
390.779  -25 37 29 -229 -64 60 2 -112
391.699  -19 54 25 -70 -2 71 -45 -37
392.619  38 83 -34 -119 34 94 -94 -81
393.539  61 35 -168 -15 43 17 -70 0
394.458  63 -12 -104 -9 72 -61 -114 -38
395.378  66 -105 -106 23 76 -81 -3 47
396.298  38 -126 -97 63 44 -64 29 39
397.218  6 -115 -42 62 -38 -34 50 103
398.138  -75 -66 26 95 -132 -21 19 109
399.058  -131 0 58 37 -107 10 61 -25
399.977  -152 -3 66 9 -50 5 40 -31
400.897  -118 -24 74 -27 -18 50 85 -47
401.817  -9 71 103 -167 -27 29 76 -57
402.737  -35 42 9 -44 22 65 20 -65
403.657  -9 58 -49 -14 39 72 -48 -73
404.577  -108 -189 -317 -270 -121 -34 -135 -118
405.496  -12 25 -126 -73 37 9 -65 33
406.416  47 7 -118 -67 61 -20 -83 -15
407.336  58 -77 -112 12 71 -52 -27 24
408.256  108 -61 -54 37 67 -21 -47 45
409.176  67 -63 -72 42 26 -125 -20 61
410.096  7 -100 -29 58 19 -14 30 66
411.015  -6 -66 -14 66 -27 -56 31 91
411.935  -139 -5 35 86 -70 -103 18 56
412.855  -153 -14 43 61 -142 -87 48 41
413.775  -68 -33 3 -44 -94 6 68 5
414.695  -51 -1 68 -83 -92 0 82 -7
415.615  -75 -2 33 -220 16718 1750 -271 -403
416.535  -246 -203 -170 -191 -103 -6 21 -92
417.454  -49 7 11 -51 2 61 -20 -157
418.374  -127 -42 -76 -110 -19 70 -7 -173
419.294  -236 -134 -95 -161 -36 -43 -334 -491
420.214  7256 8367 194 -405 -216 -80 -203 -87
421.134  -43 -8 -139 -72 8 28 -77 -63
422.054  51 40 -63 7 27 11 -73 -30
422.973  68 -3 -83 -16 61 -16 -80 -3
423.893  60 -66 -82 -1 59 25 6 39
424.813  86 -30 -29 11 44 -126 -55 20
425.733  108 -78 -78 -170 -219 -323 -139 -22
426.653  -28 -258 -274 -95 -61 -197 -286 -279
427.573  -202 -177 -72 -6 -30 -75 -29 37
428.492  -2 -107 -35 61 7 -3 15 51
429.412  -96 -58 11 -122 -172 -164 -214 -344
430.332  -182 -32 21 -36 -170 -17 40 -104
431.252  -30 28 78 -104 -145 26 48 -72
432.172  -7 5 58 -70 -21 50 27 -57
433.092  3 -15 -130 -349 -294 -170 -138 -172
434.011  -72 12 -63 -143 -103 -63 -119 -120
434.931  -45 28 -74 -105 -12 46 -39 -78
435.851  11 66 -103 -30 8 49 -152 -66
436.771  26 69 -119 -102 24 46 -92 -42
437.691  47 51 -124 6 30 61 -136 0
438.611  36 26 -9 -36 41 42 -60 21
439.531  46 36 -39 15 43 27 -33 -15
440.450  25 -14 -59 -14 44 0 -78 0
441.370  65 -3 -58 -6 51 11 -63 -12
442.290  73 -2 -66 7 64 -38 -30 2
443.210  58 -103 -45 14 78 -55 -90 -11
444.130  83 -11 -49 16 91 -102 -63 39
445.050  96 -59 2 35 62 -31 10 28
445.969  124 -66 -28 22 34 -54 -64 16
446.889  45 -38 -42 -6 16 -101 -60 37
447.809  18 -72 -85 -3 30 -53 -25 36
448.729  44 -35 1 63 25 -84 -26 42
449.649  0 -88 -17 51 9 -50 -13 60
450.569  47 -33 -23 34 -47 -130 -73 3
451.488  -65 -84 -18 22 -4 -77 -40 29
452.408  -35 -90 -19 48 -62 -90 -16 54
453.328  -73 -91 -9 57 -54 -29 26 64
454.248  -63 -55 15 35 -72 -23 16 73
455.168  -65 -41 -13 52 -137 -80 28 51
456.088  -116 -89 6 54 -78 3 30 46
457.007  -103 -59 28 46 -97 -89 36 73
457.927  -67 -35 17 71 -149 -63 47 46
458.847  -44 6 74 -108 -23 10 1 -120
459.767  -28 7 42 -90 8 34 24 -134
460.687  -84 -13 38 -133 5 20 60 -120
461.607  -282 47 39 -48 26 35 27 -94
462.527  -22 48 11 -123 -3 16 35 -67
463.446  -87 58 27 -150 -91 16 -11 -106
464.366  -15 26 -12 -63 -30 16 14 -54
465.286  7 21 11 -45 -14 36 -8 -51
466.206  11 32 16 -83 -24 61 32 -12
467.126  8 27 23 -18 14 44 38 -27
468.046  -30 17 8 -68 -12 49 6 -69
468.965  -17 52 -14 -85 -14 43 28 -56
469.885  -26 37 -13 -108 -40 7 -69 -90
470.805  1 20 7 -40 0 50 -15 -101
471.725  -30 40 -7 -40 15 42 14 -22
472.645  7 49 -23 -98 7 59 -8 -57
473.565  21 55 -14 -34 18 55 -6 -86
474.484  -7 61 25 -30 11 38 -11 -76
475.404  -24 55 20 -45 -14 42 -8 -107
476.324  -44 60 29 -38 -4 51 -3 -73
477.244  -3 19 -20 -53 -6 38 -2 -88
478.164  -24 47 1 -61 2 69 16 -63
479.084  3 50 1 -137 -119 35 20 -55
480.003  -15 43 41 -44 -40 36 14 -64
480.923  -18 58 29 -41 -5 36 17 -54
481.843  -5 25 0 -94 -4 21 10 -31
482.763  29 33 25 -59 -47 13 7 -94
483.683  -5 35 40 -39 1 47 -13 -103
484.603  -6 40 22 -58 13 43 38 -124
485.523  -22 45 21 -104 14 18 21 -72
486.442  -67 29 49 -129 -44 21 39 -77
487.362  -15 40 27 -113 -39 14 37 -127
488.282  -21 61 -51 -9 0 27 -93 -73
489.202  27 67 -160 -68 0 48 -83 7
490.122  47 41 -108 -45 6 71 -57 -52
491.042  25 36 -107 -28 39 87 -91 0
491.961  20 60 -132 -54 20 31 -72 -65
492.881  2 80 -53 -37 0 54 -106 -65
493.801  -4 26 -80 -11 -6 43 -37 -63
494.721  -6 22 -33 -20 -2 61 -26 -87
495.641  -15 52 -4 -36 -1 51 -29 -58
496.561  14 60 -24 -88 -20 42 -70 -77
497.480  7 73 -37 -88 -39 31 -16 -44
498.400  23 55 -17 -54 2 29 -18 -118
499.320  -73 19 11 -60 -20 18 5 -26
500.240  4 42 33 -12 12 43 29 -50
501.160  14 32 49 -60 -45 27 14 -98
502.080  -86 7 12 -80 -29 39 55 -75
502.999  -72 9 29 -31 -69 28 51 -35
503.919  -18 37 59 -51 -20 -10 46 -80
504.839  -99 0 49 -74 -59 23 69 -80
505.759  -39 9 56 -105 -62 0 52 -29
506.679  -19 9 23 -84 -11 30 80 -55
507.599  -102 -19 68 4 -45 16 62 -11
508.519  -44 0 48 -20 -69 -18 43 -26
509.438  -62 5 33 13 -19 -12 8 3
510.358  -40 -5 16 -8 -57 -15 43 20
511.278  -90 -34 31 30 -39 -9 28 48
512.198  -74 40 23 60 -49 33 51 66
513.118  -76 5 64 71 -59 16 26 68
514.038  -102 12 -4 74 -28 -51 23 68
514.957  -138 -95 0 72 -105 -62 16 51
515.877  -74 -60 8 49 -113 -176 -34 52
516.797  -101 -85 0 54 -45 -88 -7 63
517.717  -3 -23 60 -29 -147 -78 29 -28
518.637  -132 -61 -2 -59 -163 -53 31 -10
519.557  -120 6 30 24 -129 -36 48 63
520.476  -68 -54 27 63 -137 -54 24 44
521.396  -141 -29 27 78 -113 -105 -14 33
522.316  -142 -100 -19 30 -71 -53 9 29
523.236  -131 -42 -13 43 -44 -65 8 86
524.156  -36 -45 26 76 18 5 37 56
525.076  40 -73 -75 28 -30 -85 -23 7
525.995  -41 -115 -35 51 36 -51 4 58
526.915  42 -53 -59 37 -7 -109 -23 22
527.835  33 -155 -47 8 32 -112 -41 -10
528.755  56 -64 -83 -15 66 -44 -117 10
529.675  44 -35 24 29 75 -113 -62 1
530.595  47 -62 -75 -1 59 1 -56 0
531.515  67 1 16 73 70 -35 -112 -4
532.434  59 33 -64 -48 2 -8 -129 -2
533.354  68 56 -68 -20 33 60 -81 -53
534.274  48 83 -72 7 49 100 -146 -18
535.194  19 109 -48 -81 22 63 -91 -55
536.114  34 77 -24 8 35 85 -79 -89
537.034  -4 44 -28 -80 -15 63 -22 -77
537.953  4 72 -11 -90 10 67 35 -53
538.873  -12 29 35 -138 -109 41 43 -67
539.793  -48 24 34 -55 -110 46 89 -107
540.713  -20 46 77 -135 -44 29 78 -11
541.633  -48 34 56 -90 -67 34 70 -88
542.553  -75 -5 64 -80 -89 6 64 -25
543.472  -61 18 56 -3 -81 -20 34 0
544.392  -81 11 48 29 -123 -25 20 -24
545.312  -116 -57 11 35 -112 -131 23 75
546.232  -62 -1 20 60 -23 -106 -1 104
547.152  -91 -35 18 62 -81 -57 24 -40
548.072  -87 -13 79 -49 -83 21 68 29
548.991  -25 6 70 28 -241 -333 7 -23
549.911  -121 -52 11 -13 -132 12 51 43
550.831  -129 -31 24 64 -107 -10 30 91
551.751  -140 -38 20 67 -103 -59 8 61
552.671  -52 -94 1 67 -7 -22 14 66
553.591  -6 -41 16 49 -23 -82 -45 -6
554.511  22 -50 -26 36 5 -155 -41 37
555.430  40 -104 -20 18 31 -66 -108 -65
556.350  35 -184 -43 12 53 -123 -115 0
557.270  80 -92 -93 -4 51 -46 -66 -4
558.190  47 -65 -88 -1 39 -21 -64 -3
559.110  48 0 -68 -15 36 15 -122 -4
560.030  0 43 -159 -96 35 46 -75 -36
560.949  -33 40 -77 -2 19 73 -61 -60
561.869  0 79 6 -39 -23 48 -46 -39
562.789  13 71 0 -80 -37 51 -38 -148
563.709  -55 57 2 -137 -73 29 19 -76
564.629  -49 67 53 -118 -27 4 57 -91
565.549  -49 16 83 -154 -29 36 65 -99
566.468  -121 3 68 -21 -37 5 42 -51
567.388  -65 0 53 -52 -202 -92 83 -33
568.308  -137 -19 26 -20 -96 -19 35 20
569.228  -133 -85 7 31 -166 5 12 110
570.148  -21 -21 49 47 -215 18 20 89
571.068  -4 9 40 77 -90 -72 28 80
571.987  -46 -73 -3 53 -31 -104 -6 37
572.907  5 -48 -3 45 49 -35 -34 65
573.827  56 -26 -17 54 62 -96 -20 51
574.747  77 -87 -61 15 97 -23 -14 2
575.667  71 -63 -64 11 56 23 -20 9
576.587  64 2 -39 21 61 46 -36 -41
577.507  24 38 -56 -17 62 95 -41 33
578.426  72 -105 -251 47 73 -51 15 58
579.346  104 -93 14 80 77 -30 -5 31
580.266  57 -62 -57 17 57 -12 -69 1
581.186  58 10 -66 -9 48 18 -83 -38
582.106  67 79 -47 -92 41 70 -111 -25
583.026  25 96 -109 -50 40 79 -117 -42
583.945  9 65 -34 -76 -32 57 -5 -75
584.865  -28 45 28 -71 -68 37 9 -104
585.785  -62 32 37 -100 -32 29 31 -65
586.705  -76 13 66 -20 -71 0 29 -135
587.625  -85 -21 18 -131 -143 -45 14 -66
588.545  -131 -91 -27 -141 -243 12645 212078 564294
589.464  655059 460176 338030 389875 560474 601550 426849 290759
590.384  262953 246737 198023 146664 116116 105364 90635 84939
591.304  82025 71771 60487 61537 64281 62679 42599 26424
592.224  20938 18726 8721 1052 -553 -510 -382 -275
593.144  -290 -285 -199 -167 -163 -233 -174 -112
594.064  -105 -189 -104 -68 -19 -131 -124 -15
594.983  -5 -56 -87 -3 -4 -121 -68 -40
595.903  27 -114 -84 -36 32 -103 -157 -53
596.823  16 -7 -44 -12 36 0 -67 -25
597.743  21 28 -98 -75 15 61 -95 -13
598.663  14 79 -98 -39 31 32 -92 -21
599.583  7 63 27 -8 27 50 -27 -35
600.503  10 49 -15 -71 -16 52 -8 -101
601.422  3 6 39 -22 16 16 63 -66
602.342  21 28 59 -47 -37 57 53 -63
603.262  -7 39 68 -130 -190 -78 3 -46
604.182  -84 -35 31 -143 -215 -65 -6 -2
605.102  -22 22 34 4 -111 -67 7 42
606.022  -53 44 22 37 -104 -84 0 86
606.941  -94 -36 9 48 -9 -4 16 38
607.861  -49 -57 0 49 -20 -36 53 35
608.781  7 34 40 -4 -118 -10 47 48
609.701  -42 -38 34 59 0 36 31 85
610.621  -71 -57 4 66 -71 -60 10 56
611.541  -24 -50 0 61 11 -29 17 59
612.460  29 -67 -44 39 19 -57 8 29
613.380  47 -59 -24 49 83 -89 -84 -34
614.300  68 -54 -91 25 64 -10 -48 12
615.220  55 -55 -69 4 65 -3 -60 -8
616.140  19 -6 -70 -12 41 66 -37 6
617.060  63 70 -89 -38 13 83 -69 45
617.979  0 36 -109 -123 -13 63 -15 -67
618.899  -14 48 -28 -52 -6 34 13 -32
619.819  2 46 -9 -105 -2 49 61 -83
620.739  -27 23 31 -70 -19 36 77 -93
621.659  -76 8 47 -66 -53 8 45 -87
622.579  -56 17 40 -43 -82 -10 55 -2
623.499  -88 -26 26 6 -85 -17 7 33
624.418  -74 -48 -17 19 -98 -47 13 69
625.338  -71 1 11 52 -53 -19 31 73
626.258  -14 -12 20 41 -12 -56 0 57
627.178  33 -57 -20 42 41 -7 -6 38
628.098  57 -41 57 48 67 -59 1 48
629.018  43 -37 -43 3 70 -12 -30 6
629.937  50 3 -47 -24 23 8 -50 -41
630.857  19 -5 -82 -4 -3 50 -85 -99
631.777  5 38 -118 -77 14 15 -61 -35
632.697  13 0 -50 -43 -13 56 -37 -50
633.617  4 56 -8 -46 4 45 4 -100
634.537  -49 30 30 -47 -19 31 35 -51
635.456  -3 18 71 -4 9 20 72 -102
636.376  -35 -7 59 -17 -22 10 37 -89
637.296  -109 -15 42 -14 -48 20 42 -3
638.216  -106 -19 47 48 -50 -8 33 -124
639.136  -8 22 83 -78 -25 -16 66 8
640.056  -13 8 62 -58 -23 0 40 -45
640.975  -53 21 51 -4 -77 -20 39 19
641.895  -118 -148 -42 -18 -179 -43 -10 34
642.815  -78 -68 43 71 -87 -50 -37 73
643.735  -26 -31 -21 28 -52 -65 -30 17
644.655  -10 -50 -50 -20 0 -89 -53 40
645.575  -8 -112 -24 7 1 -116 -23 23
646.495  83 -94 -20 31 78 -84 12 13
647.414  44 -80 -36 20 45 -19 -61 -6
648.334  52 3 -42 4 35 16 -80 -3
649.254  24 15 -112 -16 19 43 -70 10
650.174  20 65 -27 -32 21 52 -32 -65
651.094  -26 32 -60 -55 -3 37 0 -50
652.014  -17 32 19 -35 3 40 3 -91
652.933  -68 57 55 -109 -15 -6 86 -157
653.853  -23 -6 41 -86 -127 -11 48 -78
654.773  -98 -42 24 -31 -92 -41 41 0
655.693  -43 9 19 29 -28 -33 44 57
656.613  -37 -12 16 50 -93 36 -14 59
657.533  -86 -43 8 58 -43 -29 -11 58
658.452  -39 -88 -34 33 -9 -73 -41 26
659.372  2 -72 -17 34 42 -25 -55 21
660.292  46 -95 -18 14 75 -82 -114 15
661.212  54 -68 10 27 42 -22 -65 -20
662.132  32 -60 -58 -22 16 -27 -114 -57
663.052  16 4 -95 -84 18 31 -59 -54
663.971  22 49 -127 -66 0 61 -59 -44
664.891  0 27 -78 -80 12 8 -51 -73
665.811  -15 42 -32 -39 0 5 -8 -45
666.731  2 41 10 -101 -1 15 17 -75
667.651  -77 19 48 -150 -13 -75 -25 -104
668.571  -88 -40 -2 -130 -66 -37 -87 -83
669.491  -39 23 -66 -98 -6 27 13 -14
670.410  5 28 39 -32 31 7 33 -108
671.330  -20 33 56 -120 -59 1 57 -65
672.250  -57 2 69 -26 -17 32 67 -45
673.170  -133 -56 32 -59 -112 -32 8 -19
674.090  -157 -124 39 32 -112 0 28 54
675.010  -44 -9 6 52 -94 -143 -113 -46
675.929  -107 -91 -55 -19 -141 -101 -23 17
676.849  -54 -51 -8 23 -53 -155 -72 9
677.769  -4 -115 -88 0 4 -151 -45 4
678.689  49 -190 -45 10 45 -163 -121 3
679.609  43 -88 -75 -12 46 -37 -87 -23
680.529  18 -61 -87 -5 54 -9 -80 -19
681.448  28 28 -32 9 29 16 -143 -34
682.368  26 71 -110 -120 1 64 -60 -59
683.288  13 56 -73 -38 -8 60 -84 -80
684.208  0 36 -72 -133 -36 49 -3 -111
685.128  -59 10 -12 -129 -72 12 37 -71
686.048  6 23 47 -143 29 41 56 -154
686.967  -23 8 78 -129 -127 -90 -26 -99
687.887  -90 -33 2 -15 -68 -67 4 -18
688.807  -122 -54 41 0 -122 -16 11 33
689.727  -85 -56 3 36 -197 -65 7 63
690.647  -128 -84 -7 43 -61 -8 2 19
691.567  -57 -52 -2 31 -41 -60 0 27
692.487  -44 -167 -80 9 -1 -128 -32 21
693.406  23 -65 -43 -9 55 -87 -21 -21
694.326  8 -211 -76 -34 19 -91 -51 -11
695.246  16 -74 -76 -9 27 -114 -144 -44
696.166  -8 -56 -124 -50 -68 34429 201155 439390
697.086  420409 264690 202353 132075 89778 73246 70508 58193
698.006  46781 35225 40030 30916 20909 18148 31478 23728
698.925  18384 12244 16182 17154 10081 5745 8953 6967
699.845  1136 1856 5338 3477 -528 -499 -115 380
700.765  -468 -396 -453 -381 -266 -197 -340 -190
701.685  -201 -122 -244 -226 -148 -75 -236 -126
702.605  -91 -19 -205 -163 -106 -68 -185 -214
703.525  -144 -57 -127 -171 -85 -42 -51 -124
704.444  -113 -14 -19 -101 -39 -12 -31 -168
705.364  -98 -4 -3 -144 -78 -27 -16 -107
706.284  -92 -39 3 -225 -320 69477 224897 246722
707.204  146446 77240 47023 33774 29604 23145 16936 16934
708.124  15160 6400 597 634 5318 7403 -563 1266
709.044  5783 501 -441 -464 -579 -447 -455 -405
709.963  -497 -413 -375 -302 -403 -323 -321 -292
710.883  -418 -385 -316 -225 -256 -210 -151 -114
711.803  -139 -138 -109 -88 -130 -206 -130 -83
712.723  -77 -181 -64 -46 -40 -95 -66 -26
713.643  -34 -121 -134 -78 3 -109 -71 -63
714.563  -12 -124 -275 0 -333 -344 -247 -158
715.483  -119 -223 -179 -134 -89 -146 -201 -125
716.402  -80 -148 -214 -82 -79 -72 -178 -193
717.322  -44 -29 -170 -98 -80 -18 -180 -114
718.242  -63 8 -113 -111 -49 -10 -97 -51
719.162  -36 10 -88 -109 -75 -22 -78 -70
720.082  -13 31 -57 -129 -65 -2 -32 -133
721.002  -100 -33 -14 -110 -90 -19 -4 -102
721.921  -61 -44 14 -43 19 -15 30 -109
722.841  -76 -40 9 -55 -72 -35 38 -83
723.761  -63 -22 15 -59 -45 0 25 -25
724.681  -65 -37 17 13 -74 -83 -31 -43
725.601  -142 -72 -2 -7 -153 -119 -34 -20
726.521  -186 -59 -20 -14 -193 -66 -157 17832
727.440  77088 66212 18379 1407 -59 -292 -410 -414
728.360  -523 -492 -394 -310 -349 -381 -302 -233
729.280  -297 -348 -301 -231 -224 -289 -210 -222
730.200  -267 -239 -183 -159 -306 -213 -168 -113
731.120  -188 -237 -171 -122 -250 -171 -138 -35
732.040  -198 -129 -102 -52 -158 -100 -50 -8
732.959  -74 -117 -73 -18 -93 -100 -63 -35
733.879  -104 -152 -71 -15 -33 -109 -77 -19
734.799  -31 -188 -248 -57 -53 -171 -125 -54
735.719  -4 -87 -66 -36 -21 -103 -150 -48
736.639  15 -96 -37 -43 -90 -258 -230 -143
737.559  -63 -211 -208 -183 -285 46160 184373 317795
738.479  293842 180175 116288 90570 73314 70208 68554 62132
739.398  50266 43463 37528 24903 17217 22314 31358 23776
740.318  14132 -400 115 155 134 181 142 183
##END=
