##TITLE= SPLICCO spectrum (File: c:\Users\pc-users\Desktop\yael gilad asaf\neon.jdx)
##JCAMP-DX= 4.24
##DATE= 10.5.2026
##TIME= 15:8:5
##DATA TYPE= INFRARED SPECTRUM
##OWNER= Public Domain
##RESOLUTION= 2.0
##DELTAX= 1.00000000
##XUNITS= NANOMETERS
##YUNITS= ARBITRARY UNITS
##APPLICATION= SPLICCO
$$SHOW_VERTICAL_FLIPPED= 0
$$SHOW_HORIZONTAL_FLIPPED= 0
##XFACTOR= 1.0
##YFACTOR= 0.000001
##FIRSTX= 321.791
##LASTX= 741.106
##NPOINTS= 3648
##FIRSTY= 0.000034
##XYDATA= (X++(Y..Y))
321.791  33 -11 38 9 22 12 3 12
322.711  -14 23 -18 12 -22 9 -9 -8
323.631  -7 -21 11 -23 22 -10 17 3
324.551  15 4 -4 -6 -22 16 -17 21
325.470  -3 5 -14 -4 0 -16 16 -14
326.390  30 -2 20 6 13 13 11 0
327.310  -9 10 -10 12 -20 10 -11 5
328.230  2 1 3 -5 17 3 27 2
329.150  26 -4 9 1 1 7 -18 7
330.070  -27 20 -18 6 -10 1 -2 -6
330.989  14 0 23 -17 10 -10 20 -6
331.909  2 2 -2 6 -11 8 -22 19
332.829  -29 -5 0 10 10 8 16 0
333.749  37 -15 16 -12 18 -10 -9 -9
334.669  -3 8 -16 10 -25 38 -24 12
335.589  0 18 5 0 0 -5 15 -4
336.508  22 -25 22 -29 3 -20 -10 -8
337.428  -23 3 -16 14 -8 13 -19 14
338.348  -6 3 -2 -8 2 -18 10 -26
339.268  12 -25 6 -7 8 4 9 11
340.188  3 23 -15 29 -23 13 -17 0
341.108  -16 -2 -10 -11 4 -9 3 -11
342.027  7 -14 25 -12 2 0 -12 -9
342.947  -11 6 -37 10 -27 11 -10 6
343.867  -6 7 0 6 14 0 26 -27
344.787  28 -18 5 -14 0 -13 -7 -9
345.707  -31 -32 -43 -18 -31 0 -44 -5
346.627  -15 9 -13 -1 -11 -16 -11 -31
347.547  -15 -44 0 -49 -4 -56 -42 -47
348.466  -25 -27 -23 0 -10 29 -18 24
349.386  -23 20 -5 3 -10 9 -3 0
350.306  1 -10 -12 -29 7 -33 20 -38
351.226  4 -15 1 -13 5 -1 -9 0
352.146  -17 11 -30 12 -36 5 -35 -27
353.066  -24 -1 -10 -11 1 -15 7 -31
353.985  13 -13 15 -18 3 -14 6 -1
354.905  5 4 6 8 -23 18 -29 27
355.825  -21 12 -17 -1 -22 0 5 5
356.745  0 -19 -3 -13 13 -16 37 -23
357.665  24 -13 12 3 4 -3 -3 -2
358.585  -5 14 -20 -5 -13 11 -15 11
359.504  -13 9 -14 -13 -18 -38 -23 -26
360.424  -7 -19 0 -33 1 -25 6 -21
361.344  -1 -9 2 -1 3 14 -6 14
362.264  -17 16 -20 22 -21 12 -18 0
363.184  -4 10 0 -8 -7 -5 13 -15
364.104  -3 -25 20 -23 13 -31 14 -9
365.023  4 -8 -7 -10 -8 -6 -14 11
365.943  -19 30 -20 33 -10 31 -14 16
366.863  -7 2 -6 2 6 -8 9 -2
367.783  7 -22 23 -12 11 -20 17 -9
368.703  -2 -19 -9 -13 -18 -18 -27 -16
369.623  -18 0 -19 18 -17 26 -23 26
370.543  -6 8 -19 -5 -11 10 7 0
371.462  5 -17 3 -9 14 -21 33 -35
372.382  25 -26 7 2 8 -10 1 0
373.302  -11 -1 -14 -2 -13 7 -25 10
374.222  -28 20 -13 15 -7 14 -4 0
375.142  -10 -3 -3 -13 -1 -2 16 -16
376.062  17 -30 17 -32 13 -24 -4 -17
376.981  11 4 4 -11 -19 0 -9 -4
377.901  -34 3 -26 16 -21 28 -16 19
378.821  -8 11 -6 3 -3 3 -4 0
379.741  10 -4 2 -15 6 -20 16 -29
380.661  16 -43 14 -26 19 -10 21 -8
381.581  7 -5 -4 -2 2 7 -10 13
382.500  -11 10 -22 18 -27 1 -27 3
383.420  -21 12 -22 -12 -19 -5 -7 -5
384.340  -6 -20 3 -11 -2 -29 8 -28
385.260  23 -17 21 -46 6 -30 8 -20
386.180  -3 -12 -2 -16 -15 -17 -34 -11
387.100  -20 -2 -19 17 -20 22 -31 7
388.019  -12 14 -23 11 -11 0 -15 8
388.939  -14 -1 1 -1 0 -16 -6 -22
389.859  -2 -17 24 -12 20 -27 22 -32
390.779  -1 -26 14 -13 5 -24 -3 -4
391.699  4 4 -5 -7 -19 12 -9 2
392.619  -12 7 -28 8 -37 7 -22 13
393.539  -26 -12 -45 2 -18 -4 -13 -2
394.458  -7 -2 0 -9 0 -13 7 -15
395.378  3 -21 2 -35 14 -33 1 -27
396.298  -12 -40 -21 -45 -17 -38 -40 -51
397.218  -32 -26 -13 -12 -25 -6 -19 -17
398.138  -35 -4 -39 12 -32 0 -38 17
399.058  -22 9 -20 0 -23 8 -25 -1
399.977  -14 0 -11 2 -8 -20 -8 -5
400.897  2 -14 8 -16 3 -17 21 -9
401.817  20 -27 7 -16 28 -27 16 -11
402.737  12 -14 -4 -29 -13 -23 -4 -6
403.657  -13 -12 -28 -11 -24 4 -5 8
404.577  -23 4 -32 20 -29 15 -34 22
405.496  -16 8 -27 14 -19 9 -23 -3
406.416  -13 2 -7 -6 -17 -5 -2 -8
407.336  4 -6 -3 -14 10 -16 16 -19
408.256  6 -24 4 -32 22 -18 10 -35
409.176  8 -20 -4 -25 -6 -35 -7 -18
410.096  -15 -24 -17 -28 -18 -12 -10 -2
411.015  -16 0 -6 7 -20 9 -22 8
411.935  -13 18 -10 31 -33 7 -27 4
412.855  -33 16 -21 15 -13 0 -8 1
413.775  -22 -9 -10 -6 -20 -15 -7 -1
414.695  -3 -5 15 -7 6 -10 10 -12
415.615  9 -7 0 -16 9 -36 20 -23
416.535  17 -32 4 -29 12 -21 13 -18
417.454  14 -4 9 -10 1 -4 10 -14
418.374  -10 -7 0 -4 -5 3 -18 -8
419.294  -18 4 -10 10 0 32 -23 12
420.214  -31 6 -35 19 -47 11 -44 21
421.134  -21 18 -25 -3 -32 0 -26 -6
422.054  -22 -5 -35 -15 -21 -1 -17 -24
422.973  -23 -10 -5 -6 -3 -23 -12 -10
423.893  6 -8 1 -21 4 -10 5 -25
424.813  8 -31 15 -19 14 -26 6 -34
425.733  22 -33 5 -30 13 -18 11 -23
426.653  -1 -31 -5 -21 -7 -18 1 -23
427.573  -14 -18 -9 -7 2 -12 -15 -23
428.492  -25 -5 -6 8 -8 -11 -18 0
429.412  -23 9 -10 -36 1 -16 6 -13
430.332  12 -9 10 -25 10 -27 16 -29
431.252  17 -22 18 -51 0 -7 28 -30
432.172  12 -29 0 -33 -4 -24 6 -11
433.092  6 -8 1 -8 -11 -18 -3 -7
434.011  -14 -17 -3 0 0 9 -1 -11
434.931  -19 3 -10 8 -10 -3 -18 5
435.851  -9 1 -21 0 -26 13 -34 -4
436.771  -30 22 -19 24 -11 21 -28 12
437.691  -18 31 -36 19 -26 9 -18 16
438.611  -22 9 -26 4 -21 -4 -30 4
439.531  -23 -1 -14 0 -8 -3 -19 -4
440.450  -7 -3 -12 -4 -8 1 -6 -5
441.370  0 -6 -9 -13 -11 -13 -7 -24
442.290  -15 -21 -14 -30 -16 -28 -6 -18
443.210  -2 -23 -6 -21 11 -14 9 -12
444.130  7 -13 26 -16 17 -28 3 -31
445.050  4 -12 21 -27 27 -29 12 -43
445.969  16 -32 4 -36 10 -10 18 -19
446.889  11 -27 4 -32 2 -14 -4 -18
447.809  9 -26 7 -18 -5 -1 13 -11
448.729  6 -8 3 -4 -5 -24 -9 -11
449.649  3 -14 -21 -15 4 2 1 -9
450.569  -12 -6 0 2 1 3 -2 -12
451.488  -18 -10 -10 -2 -12 0 -10 6
452.408  -4 -10 -20 -1 -11 7 -19 -7
453.328  -10 3 -13 10 -19 -3 -12 9
454.248  -26 -3 -21 12 -18 9 -16 6
455.168  -18 2 -50 -24 -50 -14 -36 2
456.088  -30 8 -30 0 -36 9 -21 10
457.007  -32 21 -32 26 -38 12 -23 33
457.927  -13 22 -33 11 -26 36 -21 22
458.847  14 -36 0 -20 13 -30 4 -13
459.767  27 -18 16 -28 7 -18 6 -22
460.687  9 -24 19 -14 23 -16 10 -13
461.607  18 -17 0 -13 10 -22 8 -16
462.527  -1 -17 6 -18 0 -22 4 -7
463.446  8 -14 8 -15 7 -7 6 -9
464.366  -1 -21 -2 -10 4 -10 2 -13
465.286  2 -13 5 -4 1 -21 -7 -24
466.206  -4 -11 9 -10 -1 -6 5 -3
467.126  4 -12 2 -6 9 -4 1 -4
468.046  -4 -17 0 -8 0 -15 -8 -22
468.965  -10 -12 -9 -20 -7 -18 -16 -12
469.885  0 -3 2 -5 0 -15 -9 -5
470.805  -12 -24 -11 -10 -8 -15 -6 -5
471.725  -1 -19 -15 -4 0 -1 -4 -9
472.645  -2 0 -3 -5 3 -1 -1 -9
473.565  -4 -4 0 5 4 -2 -1 -9
474.484  0 -6 -7 -6 -2 3 3 -9
475.404  -4 0 6 -3 -9 -14 -12 -5
476.324  1 -4 -1 -2 0 -2 6 2
477.244  7 0 1 -2 0 -3 9 2
478.164  4 -2 -2 -8 1 -5 -3 -3
479.084  5 0 -5 -18 2 0 6 -2
480.003  4 -5 2 -9 11 1 8 0
480.923  4 -11 -4 -8 -1 -14 -1 -11
481.843  9 -3 16 -6 -5 -16 1 -1
482.763  -3 -18 2 -1 14 -13 -6 -17
483.683  3 -11 12 -6 16 -8 14 -6
484.603  12 -1 12 -17 -1 -27 0 -12
485.523  11 -12 7 -28 -3 -29 2 -4
486.442  18 -12 2 -20 21 -20 8 -25
487.362  9 -21 10 -14 23 -22 11 -24
488.282  -17 17 -16 26 -18 17 -23 24
489.202  -9 28 -25 9 -25 20 -22 10
490.122  -22 11 -17 6 -38 6 -23 7
491.042  -13 7 -13 32 -17 31 -31 20
491.961  -26 10 -16 5 -11 15 -29 12
492.881  -24 17 -22 16 -40 0 -28 -8
493.801  -24 -11 -42 5 -32 -7 -30 1
494.721  -11 5 -15 -4 -13 8 -8 19
495.641  -18 0 -11 8 -19 2 -22 -10
496.561  -16 4 -9 -6 -8 6 -5 0
497.480  -9 -5 -8 -3 1 3 -9 -1
498.400  -1 -2 -10 -14 -7 -7 5 -1
499.320  -8 -15 -13 -17 -11 -16 -2 -10
500.240  9 -7 8 -4 7 -12 4 -2
501.160  9 -9 12 -15 11 -13 10 -10
502.080  -5 -20 22 -15 12 -30 12 -12
502.999  16 -25 -1 -30 3 -29 23 -41
503.919  5 -38 -9 -38 12 -44 6 -33
504.839  5 -42 24 -20 19 -19 18 -14
505.759  31 -11 17 -7 12 -29 2 -16
506.679  13 -13 16 -18 -3 -23 14 -10
507.599  7 -12 5 -11 4 -10 -6 -15
508.519  0 -3 -9 -11 -7 -14 1 -1
509.438  -2 -2 0 1 -5 0 -18 -8
510.358  -9 -1 -12 -7 -12 8 -15 0
511.278  -16 2 -18 -11 -25 -9 -32 1
512.198  -31 -4 -24 13 -32 1 -34 2
513.118  -28 23 -27 -4 -32 21 -23 23
514.038  -18 22 -27 10 -16 24 -23 12
514.957  -23 11 -22 5 -4 8 -12 9
515.877  -18 21 -11 4 -15 0 -8 9
516.797  -7 6 -16 1 -2 9 1 4
517.717  -5 -4 28 2 -9 -4 -7 0
518.637  3 12 -4 -1 -13 7 -12 0
519.557  -16 3 -6 13 -20 -2 -27 6
520.476  -29 10 -23 6 -28 19 -17 0
521.396  -21 16 -18 12 -18 27 -16 20
522.316  -25 18 -28 6 -23 19 -36 -3
523.236  -17 16 -11 3 -21 6 -9 1
524.156  -25 0 -20 -12 -20 -12 -10 4
525.076  -2 -2 7 1 -9 -13 -5 -9
525.995  5 4 16 -8 -4 -5 10 -6
526.915  12 -8 11 -18 11 -25 11 -18
527.835  5 -38 15 -11 9 -32 6 -23
528.755  22 -27 15 -36 17 -14 18 -22
529.675  6 -17 9 -19 11 -28 9 -9
530.595  16 -13 -6 -23 -6 -19 -11 -10
531.515  8 2 -7 -8 -6 -1 4 6
532.434  -5 7 -14 -9 -18 -7 -26 -29
533.354  -45 -27 -43 -8 -22 0 -30 -17
534.274  -71 -32 -63 -26 -59 -13 -29 1
535.194  -43 14 -30 8 -33 5 -36 15
536.114  -30 16 -18 0 -36 0 -12 2
537.034  -12 -2 -6 -6 -9 -4 -6 2
537.953  -2 -7 -8 -17 -2 -7 6 1
538.873  7 -19 -1 -20 11 -3 4 -18
539.793  1 -22 8 -56 -66 -117 -31 -69
540.713  -24 -55 -9 -48 3 -35 -7 -25
541.633  -2 -45 -4 -33 -13 -38 -8 -14
542.553  8 -21 -11 -2 -2 -18 -5 -4
543.472  0 0 -6 -1 -3 -9 -24 0
544.392  -14 0 -13 0 -18 5 -8 17
545.312  -22 4 -34 -1 -25 13 -41 27
546.232  -39 21 -27 5 -11 19 -17 7
547.152  -30 6 -19 6 -9 3 -16 -25
548.072  6 -6 4 -4 5 2 0 -2
548.991  0 0 -3 9 -16 0 -8 11
549.911  -1 11 -22 3 -22 -4 -23 23
550.831  -34 4 -26 5 -22 23 -33 30
551.751  -25 4 -29 15 -21 0 -30 4
552.671  -25 6 -13 6 -14 5 -16 -17
553.591  -15 -15 -16 0 8 -8 -7 -2
554.511  0 -5 2 -13 6 -22 2 -19
555.430  12 -2 18 -33 8 -25 20 -32
556.350  22 -38 10 -26 23 -22 11 -17
557.270  10 -27 0 -18 4 -11 -2 -16
558.190  6 0 2 -10 -6 0 -1 -3
559.110  -15 -8 -2 9 -18 2 -2 21
560.030  -19 3 -20 11 -19 8 -20 10
560.949  -16 37 -33 11 -12 15 -24 -1
561.869  -6 21 -17 7 -17 16 -13 7
562.789  -12 -2 -13 -10 -12 0 5 0
563.709  -4 -11 5 -5 8 -21 2 -20
564.629  5 -21 11 -27 2 -17 23 -21
565.549  10 -28 17 -42 9 -25 -10 -31
566.468  0 -31 5 -10 4 -9 0 -16
567.388  4 -2 -3 -1 0 -8 -3 -1
568.308  -3 8 2 11 -5 10 -5 12
569.228  -25 -2 -37 -3 -27 18 -25 21
570.148  -28 17 -27 24 -19 3 -24 14
571.068  -23 10 -12 10 -9 0 -14 -3
571.987  -15 1 -2 -7 -7 -2 5 -9
572.907  4 1 0 -17 14 -3 4 -13
573.827  18 -20 25 -30 10 -17 22 -18
574.747  1 -27 3 -38 -9 -37 -20 -45
575.667  -4 -21 1 -20 -6 -15 -16 -17
576.587  -12 -52 -95 -91 -76 -56 -68 -52
577.507  -45 -9 -30 -11 -30 8 7 -19
578.426  8 -32 -3 -18 12 -32 4 -30
579.346  11 -35 -2 -33 -5 -23 9 -7
580.266  3 -21 -7 -17 -11 -11 -14 -20
581.186  -31 -9 -20 -10 -17 2 -23 -1
582.106  -27 -33 -94 -51 -57 -26 -64 -19
583.026  -55 -15 -52 -22 -55 -16 -42 -17
583.945  -44 -20 -34 -20 -38 -39 -44 -40
584.865  -46 -42 -51 -70 -192 45202 159277 213575
585.785  148602 96834 89580 83559 60464 29331 12264 3686
586.705  1662 -747 -623 -633 -536 -597 -539 -575
587.625  -500 -534 -514 -543 -484 -437 -464 58077
588.545  150565 158636 101785 68049 63772 56024 36813 15395
589.464  1982 -686 -662 -590 -555 -504 -499 -465
590.384  -502 -453 -470 -430 -458 -429 -464 -354
591.304  -300 -216 -226 -157 -166 -121 -132 -108
592.224  -123 -106 -105 -94 -100 -95 -90 -76
593.144  -77 -79 -67 -78 -64 -68 -53 -76
594.064  -57 -86 -56 -100 -69 2755 47758 282601
594.983  340872 187848 141996 137612 133885 100663 56880 30482
595.903  19489 17987 14047 6861 1060 -716 -701 -713
596.823  -699 -670 -631 -621 -663 -642 -607 -501
597.743  -467 7274 32160 35328 9921 -681 -713 -679
598.663  -602 -426 -355 -289 -306 -260 -268 -213
599.583  -241 -200 -214 -185 -193 -160 -169 -164
600.503  -168 -155 -139 -114 -93 -83 -71 -74
601.422  -43 -61 -29 -54 -21 -77 -39 -60
602.342  -28 -73 -30 -60 -19 -68 -28 -61
603.262  -133 10481 42129 29590 7507 -2 -706 -691
604.182  -559 -430 -324 -282 -276 -257 -231 -210
605.102  -216 -192 -214 -195 -189 -154 -167 -157
606.022  -192 -161 -166 -103 -134 -68 -95 -73
606.941  -85 -69 -100 -62 -86 -70 -115 9652
607.861  133780 233605 184171 111856 92476 78683 51198 25282
608.781  10194 2680 1189 96 -687 -630 -613 -583
609.701  1099 33271 223996 436709 366209 211014 188386 194177
610.621  180722 132145 79004 49367 35103 33083 26290 19344
611.541  16471 14258 11514 9416 7397 5811 2714 -490
612.460  -705 -637 -560 -698 -618 -529 -476 -537
613.380  -453 -380 -305 -330 -272 -307 -236 -253
614.300  -221 -282 24011 358057 648518 560868 374094 299490
615.220  298186 280852 218436 144942 96221 75928 69971 64526
616.140  55114 45712 40002 38664 56031 125725 209818 188146
617.060  117214 100984 104692 103483 84841 59448 33934 20492
617.979  16120 9435 1275 -536 -640 -583 -591 -551
618.899  -549 -500 -459 -428 -429 -412 -400 -389
619.819  -332 -295 -248 -228 -193 -182 -145 -158
620.739  -132 -142 -96 -132 -98 -113 -87 -116
621.659  -61 -96 -71 -257 20022 53674 40157 15180
622.579  4446 2152 361 -642 -482 -355 -307 -298
623.499  -304 -264 -255 -233 -240 -216 -247 -202
624.418  -216 -178 -194 -163 -207 -171 -221 -131
625.338  -156 -106 -128 -79 -90 -62 -76 -58
626.258  -78 -78 -84 -66 -69 -112 12541 106944
627.178  229340 206718 119185 95667 91980 85850 62670 31828
628.098  12433 1090 -581 -730 -665 -710 -578 -575
629.018  -538 -569 -520 -552 -498 -487 -433 -465
629.937  -470 -476 -441 -391 -334 -281 -235 -242
630.857  5120 26085 42695 21355 2516 381 -35 -670
631.777  -563 -419 -371 -287 -317 -283 -291 -240
632.697  -274 -233 -252 -224 -236 -230 -237 -218
633.617  -224 -454 95706 265924 312461 219376 146726 134552
634.537  132543 111888 75711 41132 22834 18191 15611 15322
635.456  12020 7282 2115 -630 -553 -724 -672 -710
636.376  -669 -651 -588 -620 -620 -640 -594 -556
637.296  -464 -391 -340 -302 -274 -245 -240 -215
638.216  -215 -200 -226 -312 38735 232928 350372 209555
639.136  181611 187470 178273 132528 88716 53971 36594 34018
640.056  33173 29948 26407 51563 375395 787024 932139 936296
640.975  935661 893370 831131 718507 541051 391798 293407 246579
641.895  231727 221607 205368 186615 168430 151439 143107 139620
642.815  130860 130329 126348 117758 102449 94260 97714 102826
643.735  104575 96750 75493 52925 35404 22785 13345 4355
644.655  -354 -624 -579 -555 -517 -490 -426 -430
645.575  -377 -377 -316 -315 -255 -283 -210 -243
646.495  -202 -238 -175 -194 -165 -187 -141 -149
647.414  -120 -134 -112 -114 -88 -93 -98 -106
648.334  -103 -98 -98 -87 -100 -86 -95 -81
649.254  -115 -94 -115 -76 -101 -49 -101 -66
650.174  -117 -69 -113 -81 -107 -87 -250 100727
651.094  455141 621300 459833 315817 272195 269202 256603 206735
652.014  143031 93168 66035 55992 54977 53164 47201 40194
652.933  34788 30758 30994 29359 24822 27380 52176 144789
653.853  183730 130903 96500 88594 91325 84020 65872 40890
654.773  23103 11299 3063 -266 -659 -614 -586 -555
655.693  -513 -477 -467 -432 -450 -429 -412 -348
656.613  -357 -324 -355 -320 -345 -265 -265 -210
657.533  -217 -148 -175 -121 -137 -93 -118 -94
658.452  -104 -82 -101 -90 -86 -81 -72 -71
659.372  -64 -74 -57 -68 -57 -86 -57 2417
660.292  36566 167930 180304 92065 66322 55801 58515 48629
661.212  31788 14549 1493 -634 -562 -555 -519 -519
662.132  -488 -458 -418 -425 -417 -393 -386 -377
663.052  -378 -348 -342 -308 -339 -319 -347 -293
663.971  -291 -212 -203 -145 -176 -95 -126 -81
664.891  -104 -77 -109 -69 -90 -61 -80 -66
665.811  -79 -72 -73 -70 -73 -65 -57 -66
666.731  -46 -55 -48 -67 -41 -72 -41 -72
667.651  -46 -56 -11 -77 -159 56126 271982 302572
668.571  180074 127444 110115 110964 102871 77780 34508 10721
669.491  4063 1804 689 -344 -718 -685 -618 -616
670.410  -600 -587 -562 -588 -538 -538 -475 -493
671.330  -440 -500 -472 -522 -431 -601 62494 159756
672.250  141518 78626 50453 45099 47798 38967 22883 7607
673.170  462 -593 -528 -520 -520 -493 -468 -418
674.090  -398 -376 -393 -347 -348 -333 -364 -305
675.010  -318 -266 -275 -250 -295 -258 -278 -208
675.929  -215 -154 -172 -119 -116 -73 -91 -77
676.849  -71 -64 -69 -58 -53 -54 -37 -48
677.769  -33 -49 -38 -57 -11 -53 -26 -63
678.689  -7 -47 -4 -39 15 -40 11 -41
679.609  -1 -47 -3 -22 -4 -17 -8 -23
680.529  -15 -21 -17 -16 -14 -6 -11 -4
681.448  -18 -13 -15 0 -17 -17 -26 11
682.368  -27 -9 -28 7 -28 5 -21 3
683.288  -23 -3 -22 2 -10 10 -15 5
684.208  -9 -1 -8 -15 -7 -2 -1 -11
685.128  -6 -24 6 -28 6 -19 8 -30
686.048  21 -31 5 -23 17 -32 4 -25
686.967  2 -18 -11 -24 5 -19 4 -4
687.887  7 -7 -2 -1 0 -4 -10 0
688.807  -10 -5 -3 10 -21 9 -12 4
689.727  -28 8 -25 16 -23 -13 -43 -15
690.647  -18 0 -32 -1 -29 -12 -29 3
691.567  -11 -9 -19 -8 -17 -16 -14 -14
692.487  -11 -32 -13 -37 -4 -91 13925 82197
693.406  160446 124990 71862 49567 24281 14667 2804 -609
694.326  -641 -628 -522 -476 -470 -491 -469 -452
695.246  -424 -412 -362 -368 -373 -360 -338 -343
696.166  -344 -315 -301 -281 -272 -250 -280 -281
697.086  -311 -253 -255 -174 -192 -145 -157 -87
698.006  -138 -59 -113 -67 -92 -53 -87 -40
698.925  -74 -47 -65 -37 -56 -37 -11 -30
699.845  -31 -36 -34 -26 -31 -22 -39 -21
700.765  -37 -17 -50 -21 -48 -15 -56 -16
701.685  -48 -8 -44 -9 -56 -18 -50 -59
702.605  -196 -274 -247 -169 -144 -172 21003 211604
703.525  427268 409446 257148 150915 99614 75921 64150 55824
704.444  50025 43032 33992 23202 17941 18750 20222 17124
705.364  17947 17598 13433 6417 7144 9267 7733 8433
706.284  9401 9830 2919 -228 -686 -700 -652 -669
707.204  -675 -709 -666 -601 -503 -431 -382 -338
708.124  -296 -240 -230 -202 -199 -177 -177 -140
709.044  -153 -127 -138 -104 -113 -69 -112 -76
709.963  -102 -57 -89 -45 -85 -48 -82 -47
710.883  -70 -36 -48 -29 -43 -31 -41 -37
711.803  -43 -36 -25 -28 -25 -29 -15 -27
712.723  -10 -35 -11 -37 -5 -44 2 -25
713.643  3 -37 -4 -50 11 -37 -15 -27
714.563  20 -24 3 -20 -1 -19 3 -17
715.483  -7 -15 -7 -16 -6 -11 -19 -14
716.402  -14 -8 -20 -1 -14 8 -6 1
717.322  -42 -139 -460 -555 -400 -201 -184 -129
718.242  -155 -109 -147 -92 -129 -93 -100 -64
719.162  -96 -80 -90 -71 -82 -68 -75 -55
720.082  -76 -71 -66 -69 -66 -76 -64 -66
721.002  -67 -80 -57 -72 -48 -77 -35 -72
721.921  -30 -64 -13 -62 -9 -50 -19 -28
722.841  -24 -47 -8 -29 -12 -37 -20 -29
723.761  -4 -21 -13 -33 -14 -48 -306 41992
724.681  99036 85506 32179 6365 144 -630 -593 -561
725.601  -571 -537 -497 -400 -408 -341 -393 -351
726.521  -396 -342 -383 -318 -323 -267 -340 -262
727.440  -288 -255 -320 -256 -281 -247 -265 -223
728.360  -228 -221 -246 -243 -244 -207 -173 -149
729.280  -134 -120 -99 -84 -66 -88 -69 -54
730.200  -61 -33 -54 -40 -53 -24 -48 -8
731.120  -47 -15 -48 -3 -44 0 -61 1
732.040  -39 9 -30 -5 -22 2 -22 0
732.959  -23 -4 -17 -5 -21 -18 -14 -10
733.879  -10 -7 -7 -24 -11 -10 -5 -22
734.799  1 -16 -5 -19 1 -31 1 -25
735.719  0 -20 20 -22 7 -18 11 -11
736.639  10 -24 7 -9 12 -23 1 -14
737.559  17 -10 6 -7 9 -9 -16 -14
738.479  -1 -6 -6 -1 -7 -2 -7 -3
739.398  -21 0 -18 -2 -18 0 -26 15
740.318  -11 20 -23 18 -20 31 -12 17
##END=
